c File: flat50_3_0.col
c
c SOURCE: Joseph Culberson (joe@cs.ualberta.ca)
c DESCRIPTION: Quasi-random coloring problem
c              generated with flatness = 0
c                             probability = 0.139
c                             known coloring = 3
c                             random seed = 1114
c              Creation Date:  Tue Jun  9 12:01:28 1998
c Maximum degree = 8 Minimum degree = 1
c p edge 50 115
c cnf created by edge2cnf
p cnf 150 545
-1 -2 0
-1 -3 0
-2 -3 0
1 2 3 0
-4 -5 0
-4 -6 0
-5 -6 0
4 5 6 0
-7 -8 0
-7 -9 0
-8 -9 0
7 8 9 0
-10 -11 0
-10 -12 0
-11 -12 0
10 11 12 0
-13 -14 0
-13 -15 0
-14 -15 0
13 14 15 0
-16 -17 0
-16 -18 0
-17 -18 0
16 17 18 0
-19 -20 0
-19 -21 0
-20 -21 0
19 20 21 0
-22 -23 0
-22 -24 0
-23 -24 0
22 23 24 0
-25 -26 0
-25 -27 0
-26 -27 0
25 26 27 0
-28 -29 0
-28 -30 0
-29 -30 0
28 29 30 0
-31 -32 0
-31 -33 0
-32 -33 0
31 32 33 0
-34 -35 0
-34 -36 0
-35 -36 0
34 35 36 0
-37 -38 0
-37 -39 0
-38 -39 0
37 38 39 0
-40 -41 0
-40 -42 0
-41 -42 0
40 41 42 0
-43 -44 0
-43 -45 0
-44 -45 0
43 44 45 0
-46 -47 0
-46 -48 0
-47 -48 0
46 47 48 0
-49 -50 0
-49 -51 0
-50 -51 0
49 50 51 0
-52 -53 0
-52 -54 0
-53 -54 0
52 53 54 0
-55 -56 0
-55 -57 0
-56 -57 0
55 56 57 0
-58 -59 0
-58 -60 0
-59 -60 0
58 59 60 0
-61 -62 0
-61 -63 0
-62 -63 0
61 62 63 0
-64 -65 0
-64 -66 0
-65 -66 0
64 65 66 0
-67 -68 0
-67 -69 0
-68 -69 0
67 68 69 0
-70 -71 0
-70 -72 0
-71 -72 0
70 71 72 0
-73 -74 0
-73 -75 0
-74 -75 0
73 74 75 0
-76 -77 0
-76 -78 0
-77 -78 0
76 77 78 0
-79 -80 0
-79 -81 0
-80 -81 0
79 80 81 0
-82 -83 0
-82 -84 0
-83 -84 0
82 83 84 0
-85 -86 0
-85 -87 0
-86 -87 0
85 86 87 0
-88 -89 0
-88 -90 0
-89 -90 0
88 89 90 0
-91 -92 0
-91 -93 0
-92 -93 0
91 92 93 0
-94 -95 0
-94 -96 0
-95 -96 0
94 95 96 0
-97 -98 0
-97 -99 0
-98 -99 0
97 98 99 0
-100 -101 0
-100 -102 0
-101 -102 0
100 101 102 0
-103 -104 0
-103 -105 0
-104 -105 0
103 104 105 0
-106 -107 0
-106 -108 0
-107 -108 0
106 107 108 0
-109 -110 0
-109 -111 0
-110 -111 0
109 110 111 0
-112 -113 0
-112 -114 0
-113 -114 0
112 113 114 0
-115 -116 0
-115 -117 0
-116 -117 0
115 116 117 0
-118 -119 0
-118 -120 0
-119 -120 0
118 119 120 0
-121 -122 0
-121 -123 0
-122 -123 0
121 122 123 0
-124 -125 0
-124 -126 0
-125 -126 0
124 125 126 0
-127 -128 0
-127 -129 0
-128 -129 0
127 128 129 0
-130 -131 0
-130 -132 0
-131 -132 0
130 131 132 0
-133 -134 0
-133 -135 0
-134 -135 0
133 134 135 0
-136 -137 0
-136 -138 0
-137 -138 0
136 137 138 0
-139 -140 0
-139 -141 0
-140 -141 0
139 140 141 0
-142 -143 0
-142 -144 0
-143 -144 0
142 143 144 0
-145 -146 0
-145 -147 0
-146 -147 0
145 146 147 0
-148 -149 0
-148 -150 0
-149 -150 0
148 149 150 0
-52 -1 0
-53 -2 0
-54 -3 0
-85 -1 0
-86 -2 0
-87 -3 0
-130 -1 0
-131 -2 0
-132 -3 0
-139 -1 0
-140 -2 0
-141 -3 0
-142 -1 0
-143 -2 0
-144 -3 0
-61 -4 0
-62 -5 0
-63 -6 0
-67 -4 0
-68 -5 0
-69 -6 0
-88 -4 0
-89 -5 0
-90 -6 0
-142 -4 0
-143 -5 0
-144 -6 0
-64 -7 0
-65 -8 0
-66 -9 0
-70 -7 0
-71 -8 0
-72 -9 0
-82 -7 0
-83 -8 0
-84 -9 0
-94 -7 0
-95 -8 0
-96 -9 0
-127 -7 0
-128 -8 0
-129 -9 0
-139 -7 0
-140 -8 0
-141 -9 0
-82 -10 0
-83 -11 0
-84 -12 0
-112 -13 0
-113 -14 0
-114 -15 0
-115 -13 0
-116 -14 0
-117 -15 0
-133 -13 0
-134 -14 0
-135 -15 0
-139 -13 0
-140 -14 0
-141 -15 0
-52 -16 0
-53 -17 0
-54 -18 0
-106 -16 0
-107 -17 0
-108 -18 0
-127 -16 0
-128 -17 0
-129 -18 0
-136 -16 0
-137 -17 0
-138 -18 0
-55 -19 0
-56 -20 0
-57 -21 0
-61 -19 0
-62 -20 0
-63 -21 0
-64 -19 0
-65 -20 0
-66 -21 0
-85 -19 0
-86 -20 0
-87 -21 0
-109 -19 0
-110 -20 0
-111 -21 0
-112 -19 0
-113 -20 0
-114 -21 0
-133 -19 0
-134 -20 0
-135 -21 0
-55 -22 0
-56 -23 0
-57 -24 0
-85 -22 0
-86 -23 0
-87 -24 0
-100 -22 0
-101 -23 0
-102 -24 0
-112 -22 0
-113 -23 0
-114 -24 0
-115 -22 0
-116 -23 0
-117 -24 0
-67 -25 0
-68 -26 0
-69 -27 0
-121 -25 0
-122 -26 0
-123 -27 0
-148 -25 0
-149 -26 0
-150 -27 0
-61 -28 0
-62 -29 0
-63 -30 0
-70 -28 0
-71 -29 0
-72 -30 0
-109 -28 0
-110 -29 0
-111 -30 0
-121 -28 0
-122 -29 0
-123 -30 0
-52 -31 0
-53 -32 0
-54 -33 0
-58 -31 0
-59 -32 0
-60 -33 0
-124 -31 0
-125 -32 0
-126 -33 0
-127 -31 0
-128 -32 0
-129 -33 0
-142 -31 0
-143 -32 0
-144 -33 0
-79 -34 0
-80 -35 0
-81 -36 0
-82 -34 0
-83 -35 0
-84 -36 0
-124 -34 0
-125 -35 0
-126 -36 0
-127 -34 0
-128 -35 0
-129 -36 0
-136 -34 0
-137 -35 0
-138 -36 0
-55 -37 0
-56 -38 0
-57 -39 0
-58 -37 0
-59 -38 0
-60 -39 0
-61 -37 0
-62 -38 0
-63 -39 0
-109 -37 0
-110 -38 0
-111 -39 0
-130 -37 0
-131 -38 0
-132 -39 0
-139 -37 0
-140 -38 0
-141 -39 0
-145 -37 0
-146 -38 0
-147 -39 0
-73 -40 0
-74 -41 0
-75 -42 0
-91 -40 0
-92 -41 0
-93 -42 0
-97 -40 0
-98 -41 0
-99 -42 0
-100 -40 0
-101 -41 0
-102 -42 0
-109 -40 0
-110 -41 0
-111 -42 0
-97 -43 0
-98 -44 0
-99 -45 0
-124 -43 0
-125 -44 0
-126 -45 0
-136 -43 0
-137 -44 0
-138 -45 0
-55 -46 0
-56 -47 0
-57 -48 0
-88 -46 0
-89 -47 0
-90 -48 0
-91 -46 0
-92 -47 0
-93 -48 0
-97 -46 0
-98 -47 0
-99 -48 0
-118 -46 0
-119 -47 0
-120 -48 0
-130 -46 0
-131 -47 0
-132 -48 0
-148 -46 0
-149 -47 0
-150 -48 0
-52 -49 0
-53 -50 0
-54 -51 0
-76 -49 0
-77 -50 0
-78 -51 0
-79 -49 0
-80 -50 0
-81 -51 0
-103 -52 0
-104 -53 0
-105 -54 0
-112 -52 0
-113 -53 0
-114 -54 0
-115 -52 0
-116 -53 0
-117 -54 0
-145 -52 0
-146 -53 0
-147 -54 0
-112 -55 0
-113 -56 0
-114 -57 0
-115 -55 0
-116 -56 0
-117 -57 0
-118 -55 0
-119 -56 0
-120 -57 0
-127 -55 0
-128 -56 0
-129 -57 0
-112 -58 0
-113 -59 0
-114 -60 0
-115 -58 0
-116 -59 0
-117 -60 0
-130 -58 0
-131 -59 0
-132 -60 0
-127 -61 0
-128 -62 0
-129 -63 0
-139 -61 0
-140 -62 0
-141 -63 0
-106 -67 0
-107 -68 0
-108 -69 0
-118 -67 0
-119 -68 0
-120 -69 0
-133 -67 0
-134 -68 0
-135 -69 0
-142 -67 0
-143 -68 0
-144 -69 0
-106 -70 0
-107 -71 0
-108 -72 0
-118 -70 0
-119 -71 0
-120 -72 0
-103 -73 0
-104 -74 0
-105 -75 0
-130 -73 0
-131 -74 0
-132 -75 0
-133 -73 0
-134 -74 0
-135 -75 0
-148 -73 0
-149 -74 0
-150 -75 0
-130 -76 0
-131 -77 0
-132 -78 0
-127 -79 0
-128 -80 0
-129 -81 0
-136 -85 0
-137 -86 0
-138 -87 0
-127 -88 0
-128 -89 0
-129 -90 0
-133 -91 0
-134 -92 0
-135 -93 0
-145 -91 0
-146 -92 0
-147 -93 0
-124 -94 0
-125 -95 0
-126 -96 0
-139 -94 0
-140 -95 0
-141 -96 0
-142 -94 0
-143 -95 0
-144 -96 0
-106 -97 0
-107 -98 0
-108 -99 0
-136 -97 0
-137 -98 0
-138 -99 0
-112 -100 0
-113 -101 0
-114 -102 0
-136 -100 0
-137 -101 0
-138 -102 0
-142 -100 0
-143 -101 0
-144 -102 0
